c array.sh: path:     /home/seidl/data/parity/parity20.qdimacs
c array.sh: name:     parity20
c array.sh: task:     7
c array.sh: host:     c3n22
c array.sh: uname:    Linux c3n22 4.15.0-135-generic #139-Ubuntu SMP Mon Jan 18 17:38:24 UTC 2021 x86_64 x86_64 x86_64 GNU/Linux
c array.sh: start:    Thu Feb 18 10:08:09 CET 2021
c array.sh: noturbo:  1
c array.sh: governor: 32 performance
c array.sh: tmp:      1%
c array.sh: unzipped: /tmp/local-unzipped-18838335-7-parity20.cnf
*** qbfcert: using tmp directory:
*** qbfcert:   /tmp
trace-size: 1352721364
solving-res 20
proof-size: 1373692970
cert-size: 63443520
cert-header: aag 3145763 39 0 1 3145724
merged-header: p cnf 3146035 9437867
merged-size: 179399686
c ---- [ banner ] ------------------------------------------------------------
c
c KISSAT SAT Solver
c Copyright (c) 2019-2020 Armin Biere JKU Linz
c 
c Version 1.0.3 59813addcacc4d6fb880ebdd63685600475aa940
c gcc (Ubuntu 7.5.0-3ubuntu1~18.04) 7.5.0 -W -Wall -O3 -DNEMBEDDED -DNDEBUG -DNMETRICS -DNSTATISTICS
c Sun Feb 14 23:58:54 CET 2021 Linux cluster3 4.15.0-135-generic x86_64
c
c ---- [ parsing ] -----------------------------------------------------------
c
c opened and reading DIMACS file:
c 
c   /tmp/qbfcert_merged_cnf10317.cnf
c 
c parsed 'p cnf 3146035 9437867' header
c closing input after reading 179399686 bytes (171 MB)
c finished parsing after 2.41 seconds
c
c ---- [ solving ] -----------------------------------------------------------
c
c  seconds  reductions redundant irredundant
c          MB   restarts    trail         variables
c           level  conflicts   glue             remaining
c
c *  2.41 449 0  0  0   0   0 0% 0 9437865 3145839 100%
c {  2.41 449 0  0  0   0   0 0% 0 9437865 3145839 100%
c -  2.81 509 15  1  0 301  86 100% 14 9437554 3145839 100%
c -  3.01 509 14  2  0 902 186 100% 13 9437554 3145839 100%
c }  3.02 509 14  2  0 1000 284 100% 13 9437554 3145839 100%
c [  3.02 509 0  2  0 1000 284 0% 0 9437554 3145839 100%
c O  4.07 527 8  2  0 1002 286 100% 6 9437477 3145839 100%
c ]  5.07 560 43  2  0 1062 340 98% 18 9437477 3145839 100%
c {  5.07 560 14  2  0 1062 340 100% 13 9437477 3145839 100%
c i 31.87 750 29141  2 43 1239 441 98% 13705 9437477 3145712 100%
c - 36.15 760 13523  3 54 2180 1066 99% 5656 9437159 3145712 100%
c I 37.21 760 9524  3 54 3035 1836 99% 3775 9437159 3145712 100%
c } 41.58 760 9399  3 54 3066 1867 99% 3727 9437159 3145712 100%
c [ 41.58 760 43  3 54 3066 1867 98% 18 9437159 3145712 100%
c - 48.31 760 2388  4 54 3381 1405 75% 402 9437159 3145712 100%
c 3 57.68 784 2459  4 54 3998 10302 68% 385 9437033 3145712 100%
c f 66.09 1156 2459  4 54 3998 17397766 68% 385 9437033 3145675 100%
c f 66.74 1210 2459  4 54 3998 17872003 68% 385 9437033 3145674 100%
c u 72.85 1210 2459  4 54 3998 17871964 68% 385 9437033 3145674 100%
c v 73.68 1210 2459  4 54 3998 17871963 68% 385 9437033 3145674 100%
c
c  seconds      reductions    redundant       irredundant
c           MB      restarts           trail           variables
c             level    conflicts           glue              remaining
c
c w 76.64 1211 2459  4 54 3998 18133387 68% 385 9437033 3145674 100%
c d 77.93 1193 2459  4 54 3998 18133387 68% 385 9436825 3145570 100%
c i 78.03 1193 2459  4 54 3998 18133387 68% 385 9436825 3145570 100%
c - 91.14 1193 12628  5 54 4881 96100 80% 4813 9436711 3145570 100%
c ] 99.80 717 13882  5 55 5235 96387 83% 5550 9436711 3145570 100%
c { 99.80 717 9399  5 55 5235 96387 99% 3727 9436711 3145570 100%
c B 171.22 887 6527  5 69 6039 97163 98% 2660 9436711 3145570 100%
c - 203.69 632 5190  6 69 6681 96252 98% 2114 9436711 3145570 100%
c - 321.75 632 3114  7 69 8781 2040 98% 1271 9436711 3145570 100%
c W 432.80 1057 2292  7 69 10042 3252 98% 937 9436711 3145570 100%
c } 448.30 1103 2187  7 69 10236 3428 98% 894 9436711 3145570 100%
c [ 448.30 1103 13882  7 69 10236 3428 83% 5550 9436711 3145570 100%
c - 498.59 632 8754  8 69 11181 2107 88% 2346 9436711 3145570 100%
c 3 501.40 585 8677  8 69 11199 16899 88% 2325 9436711 3145570 100%
c f 518.27 951 8677  8 69 11199 18701076 88% 2325 9436711 3145521 100%
c u 531.55 952 8677  8 69 11199 18724745 88% 2325 9436711 3145521 100%
c v 570.60 952 8677  8 69 11199 18724729 88% 2325 9436711 3145521 100%
c d 574.70 986 8677  8 69 11199 18986807 88% 2325 9436613 3145472 100%
c i 574.79 986 8677  8 69 11199 18986807 88% 2325 9436613 3145472 100%
c caught signal 15 (SIGTERM)
c
c ---- [ profiling ] ---------------------------------------------------------
c
c         605.41   85.61 %  search
c         384.36   54.35 %  focused
c         221.05   31.26 %  stable
c          99.35   14.05 %  simplify
c          97.65   13.81 %  probe
c          64.98    9.19 %  vivify
c          21.45    3.03 %  failed
c           4.68    0.66 %  substitute
c           4.48    0.63 %  transitive
c           2.41    0.34 %  parse
c           2.06    0.29 %  ternary
c           1.97    0.28 %  reduce
c           1.03    0.15 %  autarky
c           0.68    0.10 %  walking
c =============================================
c         707.17  100.00 %  total
c
c ---- [ statistics ] --------------------------------------------------------
c
c conflicts:                            12601               17.82 per second
c decisions:                           822373               65.26 per conflict
c propagations:                    4422653173          6253999    per second
c reductions:                               8             1575    interval
c rephased:                                 4             3150    interval
c restarts:                                71              177.48 interval
c
c ---- [ resources ] ---------------------------------------------------------
c
c maximum-resident-set-size:       1306832896 bytes       1246 MB
c process-time:                        11m 47s             707.17 seconds
c raising signal 15 (SIGTERM)
*** qbfcert: clean up and exit
c array.sh: end:      Thu Feb 18 10:23:09 CET 2021
